experiment/data/lkh-res/Vrp-Set-D-n510/Vrp-Set-D-n510-lkh/0.lkh1.vrp
NAME : 0
COMMENT : CVRP Instance
TYPE : CVRP
DIMENSION : 510
EDGE_WEIGHT_TYPE : EUC_2D
CAPACITY : 145
NODE_COORD_SECTION
1	83200	32200
2	15200	15200
3	59300	82000
4	59200	85700
5	60900	81200
6	50100	20500
7	88500	82100
8	11600	7400
9	68700	46300
10	13400	9400
11	96300	76500
12	36500	48700
13	43000	44200
14	59200	45800
15	35700	30700
16	37600	35100
17	43600	47300
18	38200	43800
19	37200	22500
20	91800	76700
21	73400	52500
22	39200	33800
23	39900	37500
24	59800	88200
25	65400	87500
26	57900	87900
27	80800	52000
28	38800	46300
29	61700	87300
30	24600	39800
31	78700	84000
32	76100	53400
33	69500	43900
34	71500	55300
35	42700	40800
36	37400	36500
37	34400	47000
38	53700	30300
39	78000	81500
40	38500	49900
41	33600	52400
42	74900	92200
43	81000	66300
44	48500	24000
45	64600	90300
46	69900	55900
47	62800	90200
48	85500	82900
49	63100	90700
50	36500	33400
51	25500	14700
52	78600	73800
53	84900	71800
54	39500	56200
55	86500	94000
56	76100	67600
57	78900	82300
58	63400	85000
59	31200	56300
60	57500	51700
61	65800	88200
62	26000	53300
63	30700	30700
64	69200	55100
65	63300	87900
66	90000	74400
67	65200	94200
68	31000	33300
69	27500	19500
70	51100	81000
71	32000	34700
72	25300	19800
73	30500	37100
74	69800	91500
75	32600	34400
76	64000	52600
77	48500	57300
78	67900	88500
79	94000	88600
80	42300	54600
81	30500	33500
82	66400	53600
83	63700	54300
84	44700	55700
85	18500	14600
86	31400	33000
87	18100	13600
88	22400	27800
89	52300	55500
90	55300	41300
91	82200	74200
92	48500	56400
93	23100	24700
94	16400	8000
95	47200	63800
96	77800	89300
97	56000	79600
98	78700	84100
99	47700	60700
100	16000	15800
101	15300	11800
102	46100	60300
103	73700	68600
104	71100	66400
105	82500	77700
106	17600	13100
107	47300	55300
108	13300	4800
109	82200	100000
110	81000	76600
111	49400	58200
112	83300	95000
113	68700	56500
114	18900	16500
115	10900	12100
116	16600	9500
117	12200	0
118	11900	3600
119	56500	38100
120	71700	50700
121	33700	44600
122	21300	27200
123	71300	61500
124	80700	79100
125	69700	49600
126	28400	46700
127	19600	11900
128	88900	79500
129	11600	9400
130	80800	77300
131	60100	51800
132	51000	45700
133	73100	57500
134	24800	44800
135	13400	11000
136	84600	82100
137	89200	81600
138	89000	80300
139	89500	77300
140	27800	45700
141	27500	48000
142	68500	90000
143	18700	20700
144	65700	48800
145	83500	79000
146	44000	13200
147	30300	42000
148	80900	81300
149	63300	84200
150	70800	88200
151	80900	82200
152	32800	19900
153	9600	14600
154	90200	88100
155	36600	17100
156	88600	80400
157	78700	77700
158	17700	23600
159	43000	79600
160	83600	96800
161	88700	82300
162	52600	39600
163	18300	33000
164	42200	15400
165	89700	79800
166	84500	80500
167	8900	9600
168	15600	21600
169	13200	15900
170	12800	15200
171	16300	29700
172	17400	23800
173	38100	14300
174	17100	22100
175	46700	19600
176	12700	14300
177	38400	11300
178	36800	16900
179	12900	9900
180	14400	17800
181	49900	39500
182	9800	12600
183	15700	13700
184	39200	17100
185	11000	13300
186	12200	16600
187	24400	49400
188	19900	39400
189	13500	27500
190	84400	99600
191	72500	87200
192	82000	96800
193	78500	79200
194	8700	20500
195	19100	38800
196	45300	78700
197	43300	72000
198	67500	89200
199	69900	41100
200	38800	16700
201	33800	14300
202	85000	79000
203	37300	17600
204	42200	21500
205	13000	31800
206	41000	77900
207	43700	21300
208	79500	83800
209	81600	77800
210	36000	16500
211	11300	10000
212	38700	18000
213	90700	79700
214	82600	92900
215	37300	35900
216	6900	13200
217	3700	12200
218	89100	82300
219	45900	75600
220	10800	16700
221	81000	85700
222	6000	21900
223	85700	80300
224	39300	13700
225	12800	28500
226	6900	19900
227	3900	9400
228	57300	79900
229	5300	20100
230	2500	8200
231	39100	24900
232	85200	85000
233	94600	79500
234	12600	10100
235	11400	14200
236	2700	21900
237	85100	82600
238	0	20200
239	4000	20000
240	86200	67200
241	84400	79700
242	74800	52700
243	87100	88000
244	97300	90600
245	43500	19900
246	88000	91600
247	83100	83300
248	42000	21900
249	11200	11300
250	14500	19000
251	75700	65500
252	64700	45300
253	47500	30000
254	49200	27200
255	93500	69500
256	70300	57300
257	95900	92300
258	74000	59000
259	42400	24600
260	95700	80800
261	47800	26700
262	42700	21000
263	29600	18200
264	14900	22400
265	90000	83700
266	71700	48300
267	57900	82800
268	57400	48300
269	39500	79700
270	43600	22900
271	42200	24600
272	65600	50600
273	72900	56600
274	38800	24300
275	40000	28300
276	47600	27000
277	17200	15600
278	35200	20800
279	61300	47800
280	20700	19000
281	65100	52000
282	100000	90600
283	55400	50300
284	30700	24000
285	12700	14200
286	3900	17100
287	83200	85500
288	89500	90300
289	77000	89600
290	69900	57700
291	18200	16300
292	41500	19700
293	25600	19800
294	18600	21000
295	17600	24300
296	69100	53000
297	63700	45700
298	74100	53400
299	48800	21300
300	70200	59100
301	13800	17600
302	6500	14000
303	65000	91300
304	58200	41500
305	75700	60000
306	41200	25500
307	79200	84000
308	5300	15800
309	48900	30900
310	22900	22000
311	74900	54400
312	81800	95800
313	51100	26200
314	8400	12700
315	23200	19700
316	49100	27000
317	45200	79800
318	67600	58400
319	16700	25200
320	83800	93600
321	21000	21000
322	64000	50300
323	5200	18500
324	24100	24800
325	42500	24500
326	51400	21900
327	67500	58600
328	34100	26100
329	76700	92200
330	46100	25900
331	66800	86800
332	61700	54700
333	46700	28700
334	86700	68800
335	46300	34300
336	40700	21700
337	50800	21500
338	23100	24500
339	16000	23000
340	2000	22000
341	42300	30500
342	7800	18400
343	44000	33200
344	73400	58900
345	45800	36500
346	36500	34300
347	47300	38200
348	45100	39000
349	48500	37600
350	76800	87700
351	59900	39000
352	51400	39700
353	41700	34800
354	47500	34800
355	77800	65000
356	75500	53400
357	42700	37900
358	39000	35000
359	39500	33700
360	75000	90600
361	39800	30500
362	38300	33500
363	48600	45000
364	44500	40300
365	42100	34300
366	42000	36700
367	42800	37400
368	21200	25500
369	47800	37000
370	13000	18500
371	48400	40500
372	7000	21500
373	39900	34300
374	40400	32000
375	25500	28500
376	79800	83300
377	43600	41100
378	38200	32300
379	26100	27400
380	34600	35700
381	28700	28500
382	38600	34900
383	75300	64900
384	49500	43200
385	48800	39300
386	16100	25600
387	91700	75500
388	35100	31500
389	25800	27400
390	12900	24800
391	36900	35700
392	30500	31600
393	47000	34500
394	31100	33300
395	44800	38700
396	33900	31100
397	34100	30300
398	90200	70900
399	47300	41500
400	25900	31400
401	15300	22200
402	36700	39900
403	35500	33800
404	50500	39700
405	50100	73500
406	46700	39200
407	78700	63100
408	48300	42400
409	69600	52600
410	5700	21900
411	2900	23300
412	32400	32500
413	51600	46800
414	45300	46100
415	48800	44600
416	89800	73200
417	13900	23500
418	94100	71300
419	45700	37200
420	43400	38000
421	47200	45000
422	44600	44000
423	46800	40200
424	47800	38000
425	5400	21000
426	45100	45200
427	3400	22800
428	12300	10500
429	52500	85700
430	43600	28400
431	37700	25700
432	84300	69800
433	67300	45500
434	42500	38200
435	27800	29300
436	11900	23700
437	12100	28900
438	90300	73600
439	43400	42200
440	37600	40000
441	5700	23500
442	4700	22300
443	34100	40800
444	5700	24300
445	54000	79900
446	91300	78300
447	47700	45600
448	48100	36500
449	45600	39500
450	43100	36800
451	41200	39300
452	43400	39700
453	65200	48900
454	44300	44800
455	51200	55300
456	33900	35800
457	53700	82000
458	42500	35700
459	37700	36400
460	71500	52300
461	46400	37200
462	33000	39000
463	37000	35500
464	42700	46000
465	59500	46000
466	40500	44700
467	45400	51500
468	31600	37100
469	47000	46000
470	37600	37700
471	42000	27300
472	37200	42700
473	40600	42000
474	41800	36000
475	38600	41300
476	39300	40800
477	40400	34500
478	34200	19000
479	49200	53500
480	39700	45000
481	97100	71500
482	57900	80300
483	43800	43800
484	42900	48500
485	44400	17200
486	49200	23300
487	47100	20300
488	88300	88700
489	51000	58900
490	15800	26200
491	36700	26700
492	17400	31400
493	14800	28000
494	11500	7400
495	78500	74000
496	94900	73400
497	44400	45100
498	92700	77700
499	13000	31900
500	75800	56700
501	21900	36200
502	73400	66900
503	44000	55900
504	63900	50200
505	86900	68500
506	40200	27700
507	37900	30300
508	36800	27900
509	74700	58900
510	39100	32500
DEMAND_SECTION
1	0
2	3
3	7
4	6
5	7
6	4
7	7
8	4
9	3
10	16
11	8
12	3
13	6
14	5
15	6
16	5
17	13
18	6
19	5
20	4
21	5
22	7
23	6
24	4
25	9
26	7
27	4
28	10
29	8
30	5
31	11
32	7
33	8
34	9
35	4
36	3
37	6
38	4
39	7
40	12
41	4
42	9
43	4
44	7
45	3
46	6
47	4
48	6
49	9
50	8
51	4
52	7
53	5
54	10
55	7
56	8
57	3
58	9
59	6
60	9
61	6
62	7
63	10
64	5
65	9
66	9
67	9
68	6
69	5
70	5
71	6
72	6
73	7
74	6
75	4
76	7
77	5
78	6
79	8
80	10
81	4
82	4
83	8
84	5
85	4
86	7
87	12
88	7
89	5
90	2
91	13
92	8
93	1
94	8
95	5
96	6
97	15
98	8
99	8
100	3
101	6
102	6
103	4
104	6
105	6
106	6
107	4
108	5
109	6
110	9
111	16
112	5
113	10
114	13
115	12
116	3
117	6
118	4
119	7
120	5
121	5
122	6
123	14
124	5
125	5
126	7
127	6
128	7
129	4
130	7
131	6
132	5
133	4
134	4
135	6
136	11
137	6
138	5
139	6
140	2
141	4
142	5
143	5
144	7
145	6
146	4
147	10
148	5
149	5
150	5
151	3
152	10
153	5
154	7
155	6
156	6
157	5
158	7
159	7
160	8
161	12
162	5
163	6
164	5
165	7
166	6
167	3
168	6
169	3
170	13
171	6
172	4
173	3
174	11
175	3
176	5
177	8
178	4
179	4
180	9
181	5
182	4
183	10
184	9
185	2
186	12
187	3
188	5
189	9
190	7
191	4
192	11
193	7
194	7
195	3
196	6
197	7
198	6
199	5
200	5
201	8
202	6
203	8
204	6
205	6
206	5
207	3
208	4
209	4
210	10
211	1
212	5
213	8
214	8
215	4
216	4
217	7
218	3
219	5
220	4
221	11
222	8
223	11
224	6
225	6
226	7
227	23
228	8
229	8
230	7
231	8
232	3
233	6
234	4
235	10
236	5
237	6
238	6
239	3
240	6
241	6
242	7
243	5
244	5
245	9
246	5
247	5
248	5
249	8
250	4
251	3
252	5
253	6
254	6
255	5
256	3
257	5
258	5
259	8
260	6
261	4
262	4
263	5
264	5
265	9
266	5
267	4
268	5
269	3
270	7
271	12
272	7
273	8
274	4
275	2
276	5
277	7
278	5
279	5
280	12
281	6
282	5
283	4
284	5
285	8
286	9
287	10
288	4
289	5
290	5
291	8
292	6
293	4
294	5
295	4
296	6
297	4
298	5
299	3
300	5
301	9
302	4
303	8
304	5
305	3
306	4
307	6
308	6
309	8
310	6
311	7
312	5
313	2
314	4
315	10
316	9
317	8
318	4
319	4
320	5
321	6
322	3
323	8
324	6
325	10
326	6
327	4
328	8
329	5
330	3
331	6
332	5
333	6
334	5
335	5
336	5
337	5
338	5
339	7
340	9
341	5
342	6
343	7
344	6
345	8
346	6
347	7
348	5
349	7
350	7
351	2
352	6
353	6
354	4
355	6
356	4
357	5
358	8
359	6
360	7
361	6
362	5
363	13
364	10
365	7
366	11
367	3
368	8
369	10
370	6
371	8
372	4
373	8
374	9
375	4
376	7
377	11
378	5
379	14
380	5
381	7
382	9
383	11
384	4
385	6
386	8
387	3
388	3
389	7
390	11
391	4
392	4
393	7
394	6
395	4
396	3
397	5
398	13
399	4
400	12
401	7
402	11
403	4
404	10
405	10
406	4
407	3
408	5
409	9
410	11
411	6
412	6
413	9
414	11
415	11
416	6
417	9
418	8
419	4
420	4
421	16
422	8
423	9
424	10
425	7
426	7
427	5
428	5
429	4
430	8
431	7
432	8
433	4
434	8
435	6
436	7
437	7
438	7
439	5
440	4
441	5
442	5
443	6
444	4
445	5
446	5
447	5
448	7
449	5
450	8
451	5
452	5
453	4
454	6
455	12
456	4
457	6
458	7
459	4
460	10
461	4
462	6
463	5
464	4
465	4
466	6
467	6
468	6
469	7
470	3
471	7
472	6
473	7
474	4
475	6
476	5
477	8
478	5
479	7
480	5
481	11
482	7
483	11
484	6
485	8
486	4
487	7
488	7
489	7
490	8
491	8
492	7
493	5
494	7
495	10
496	6
497	7
498	6
499	6
500	5
501	5
502	8
503	6
504	6
505	2
506	2
507	6
508	7
509	3
510	6
DEPOT_SECTION
1
-1
EOF
