experiment/data/lkh-res/Vrp-Set-D-n510/Vrp-Set-D-n510-lkh/0.lkh1.tour
NAME : 0.2967298.tour
COMMENT : Length = 2967298
COMMENT : Found by LKH-3 [Keld Helsgaun] Tue Apr  9 01:35:06 2024
TYPE : TOUR
DIMENSION : 532
TOUR_SECTION
1
33
433
144
453
322
504
131
60
89
455
92
77
111
489
332
83
76
281
272
9
513
240
505
334
432
53
91
495
52
56
251
383
123
300
290
256
113
64
296
409
125
266
512
27
407
355
157
193
39
57
376
208
307
31
98
221
287
136
166
223
202
241
145
105
523
201
116
167
227
230
217
216
302
308
286
323
226
342
194
264
401
339
172
158
338
328
525
506
324
93
368
295
417
436
372
222
410
425
229
239
238
340
236
411
427
442
441
444
390
375
381
530
275
379
389
88
122
319
386
490
493
189
225
437
205
499
171
492
163
501
195
188
30
73
468
515
304
90
408
422
483
13
466
480
28
40
12
37
121
472
18
473
35
439
377
364
399
371
521
43
110
130
209
124
148
151
247
237
48
232
243
488
246
288
154
79
257
244
282
260
233
11
496
481
519
343
359
22
362
346
380
456
75
71
86
394
68
81
400
435
63
392
412
403
50
378
510
374
529
254
316
261
276
330
325
259
271
306
231
431
491
508
397
396
388
15
507
361
341
253
309
38
524
349
424
347
461
419
450
367
357
434
420
395
348
449
423
385
181
404
352
162
119
514
146
177
94
108
117
118
8
494
129
211
249
115
428
234
179
10
135
101
183
2
100
277
263
336
531
326
337
6
299
487
175
485
164
224
173
210
155
178
203
200
184
212
292
245
262
204
248
270
44
486
526
350
289
96
214
320
55
112
160
190
109
192
312
329
42
360
74
142
198
78
150
191
103
502
511
284
174
168
250
370
186
220
153
314
182
185
235
285
176
170
169
301
180
143
294
321
310
313
532
255
418
387
20
498
446
213
165
137
218
265
161
7
156
138
128
139
66
438
416
398
522
333
430
471
274
19
278
152
69
293
72
315
280
114
291
85
87
106
127
51
478
207
517
279
283
479
107
102
99
95
197
206
269
159
317
196
219
405
70
429
457
445
97
228
482
82
527
305
104
149
58
331
25
61
45
303
67
49
47
65
29
24
26
4
267
3
5
327
318
46
520
448
369
345
458
474
366
23
470
36
459
215
391
463
16
382
358
373
477
353
365
335
393
354
516
120
460
34
273
133
344
258
509
500
311
298
21
242
356
32
518
465
268
467
84
503
80
54
41
59
62
187
141
126
140
134
147
462
443
402
440
475
476
451
452
406
528
351
384
415
363
421
426
497
454
464
484
17
414
469
447
132
413
14
297
252
199
-1
EOF
